# Solution for model FSG
# Objective value = 9.5520265491167556e+03
x_0_1 0
x_0_2 0
x_0_3 1
x_0_4 1
x_0_5 0
x_0_6 1
x_0_7 0
x_0_8 0
x_0_9 0
x_0_10 0
x_0_11 0
x_0_12 0
x_0_13 0
x_1_2 0
x_1_3 0
x_1_4 0
x_1_5 0
x_1_6 0
x_1_7 0
x_1_8 0
x_1_9 1
x_1_10 0
x_1_11 0
x_1_12 0
x_1_13 0
x_2_1 0
x_2_3 0
x_2_4 0
x_2_5 1
x_2_6 0
x_2_7 0
x_2_8 0
x_2_9 0
x_2_10 0
x_2_11 0
x_2_12 0
x_2_13 0
x_3_1 0
x_3_2 0
x_3_4 0
x_3_5 0
x_3_6 0
x_3_7 1
x_3_8 0
x_3_9 0
x_3_10 0
x_3_11 0
x_3_12 0
x_3_13 0
x_4_1 0
x_4_2 0
x_4_3 0
x_4_5 0
x_4_6 0
x_4_7 0
x_4_8 0
x_4_9 0
x_4_10 0
x_4_11 0
x_4_12 0
x_4_13 1
x_5_1 0
x_5_2 0
x_5_3 0
x_5_4 0
x_5_6 0
x_5_7 0
x_5_8 0
x_5_9 0
x_5_10 0
x_5_11 0
x_5_12 1
x_5_13 0
x_6_1 0
x_6_2 0
x_6_3 0
x_6_4 0
x_6_5 0
x_6_7 0
x_6_8 0
x_6_9 0
x_6_10 0
x_6_11 1
x_6_12 0
x_6_13 0
x_7_1 0
x_7_2 0
x_7_3 0
x_7_4 0
x_7_5 0
x_7_6 0
x_7_8 0
x_7_9 0
x_7_10 1
x_7_11 0
x_7_12 0
x_7_13 0
x_8_1 0
x_8_2 1
x_8_3 0
x_8_4 0
x_8_5 0
x_8_6 0
x_8_7 0
x_8_9 0
x_8_10 0
x_8_11 0
x_8_12 0
x_8_13 0
x_9_1 0
x_9_2 0
x_9_3 0
x_9_4 0
x_9_5 0
x_9_6 0
x_9_7 0
x_9_8 1
x_9_10 0
x_9_11 0
x_9_12 0
x_9_13 0
x_10_1 1
x_10_2 0
x_10_3 0
x_10_4 0
x_10_5 0
x_10_6 0
x_10_7 0
x_10_8 0
x_10_9 0
x_10_11 0
x_10_12 0
x_10_13 0
U_1_1 0
U_1_2 1
U_1_3 0
U_2_1 0
U_2_2 0
U_2_3 1
U_3_1 1
U_3_2 0
U_3_3 0
U_4_1 1
U_4_2 0
U_4_3 0
U_5_1 0
U_5_2 0
U_5_3 1
U_6_1 1
U_6_2 0
U_6_3 0
U_7_1 1
U_7_2 0
U_7_3 0
U_8_1 0
U_8_2 1
U_8_3 0
U_9_1 0
U_9_2 1
U_9_3 0
U_10_1 0
U_10_2 1
U_10_3 0
U_11_1 0
U_11_2 0
U_11_3 1
U_12_1 0
U_12_2 0
U_12_3 1
U_13_1 0
U_13_2 0
U_13_3 1
TBar_0 0
TBar_1 2.1413207603462496e+01
TBar_2 3.4264780737424132e+01
TBar_3 5.0671984370063967e+00
TBar_4 15
TBar_5 3.6980991333088610e+01
TBar_6 1.0235275453921815e+01
TBar_7 1.2320838902317590e+01
TBar_8 2.7665470167372135e+01
TBar_9 2.5211799447817455e+01
TBar_10 1.7011591409804680e+01
TBar_11 3.4764724546078185e+01
TBar_12 45
TBar_13 3.7991351575296889e+01
y_0_1_1 0
y_0_1_2 0
y_0_1_3 0
y_0_1_4 0
y_0_1_5 0
y_0_2_1 0
y_0_2_2 0
y_0_2_3 0
y_0_2_4 0
y_0_2_5 0
y_0_3_1 0
y_0_3_2 0
y_0_3_3 0
y_0_3_4 0
y_0_3_5 0
y_0_4_1 0
y_0_4_2 0
y_0_4_3 0
y_0_4_4 0
y_0_4_5 0
y_0_5_1 0
y_0_5_2 0
y_0_5_3 0
y_0_5_4 0
y_0_5_5 0
y_0_6_1 0
y_0_6_2 0
y_0_6_3 0
y_0_6_4 0
y_0_6_5 0
y_0_7_1 0
y_0_7_2 0
y_0_7_3 0
y_0_7_4 0
y_0_7_5 0
y_0_8_1 0
y_0_8_2 0
y_0_8_3 0
y_0_8_4 0
y_0_8_5 0
y_0_9_1 0
y_0_9_2 0
y_0_9_3 0
y_0_9_4 0
y_0_9_5 0
y_0_10_1 0
y_0_10_2 0
y_0_10_3 0
y_0_10_4 0
y_0_10_5 0
y_0_11_1 0
y_0_11_2 0
y_0_11_3 0
y_0_11_4 0
y_0_11_5 0
y_0_12_1 0
y_0_12_2 0
y_0_12_3 0
y_0_12_4 0
y_0_12_5 0
y_0_13_1 0
y_0_13_2 0
y_0_13_3 0
y_0_13_4 0
y_0_13_5 0
y_1_2_1 0
y_1_2_2 0
y_1_2_3 0
y_1_2_4 0
y_1_2_5 0
y_1_3_1 0
y_1_3_2 0
y_1_3_3 0
y_1_3_4 0
y_1_3_5 0
y_1_4_1 0
y_1_4_2 0
y_1_4_3 0
y_1_4_4 0
y_1_4_5 0
y_1_5_1 0
y_1_5_2 0
y_1_5_3 0
y_1_5_4 0
y_1_5_5 0
y_1_6_1 0
y_1_6_2 0
y_1_6_3 0
y_1_6_4 0
y_1_6_5 0
y_1_7_1 0
y_1_7_2 0
y_1_7_3 0
y_1_7_4 0
y_1_7_5 0
y_1_8_1 0
y_1_8_2 0
y_1_8_3 0
y_1_8_4 0
y_1_8_5 0
y_1_9_1 1
y_1_9_2 1
y_1_9_3 1
y_1_9_4 1
y_1_9_5 1
y_1_10_1 0
y_1_10_2 0
y_1_10_3 0
y_1_10_4 0
y_1_10_5 0
y_1_11_1 0
y_1_11_2 0
y_1_11_3 0
y_1_11_4 0
y_1_11_5 0
y_1_12_1 0
y_1_12_2 0
y_1_12_3 0
y_1_12_4 0
y_1_12_5 0
y_1_13_1 0
y_1_13_2 0
y_1_13_3 0
y_1_13_4 0
y_1_13_5 0
y_2_1_1 0
y_2_1_2 0
y_2_1_3 0
y_2_1_4 0
y_2_1_5 0
y_2_3_1 0
y_2_3_2 0
y_2_3_3 0
y_2_3_4 0
y_2_3_5 0
y_2_4_1 0
y_2_4_2 0
y_2_4_3 0
y_2_4_4 0
y_2_4_5 0
y_2_5_1 1
y_2_5_2 1
y_2_5_3 1
y_2_5_4 1
y_2_5_5 1
y_2_6_1 0
y_2_6_2 0
y_2_6_3 0
y_2_6_4 0
y_2_6_5 0
y_2_7_1 0
y_2_7_2 0
y_2_7_3 0
y_2_7_4 0
y_2_7_5 0
y_2_8_1 0
y_2_8_2 0
y_2_8_3 0
y_2_8_4 0
y_2_8_5 0
y_2_9_1 0
y_2_9_2 0
y_2_9_3 0
y_2_9_4 0
y_2_9_5 0
y_2_10_1 0
y_2_10_2 0
y_2_10_3 0
y_2_10_4 0
y_2_10_5 0
y_2_11_1 0
y_2_11_2 0
y_2_11_3 0
y_2_11_4 0
y_2_11_5 0
y_2_12_1 0
y_2_12_2 0
y_2_12_3 0
y_2_12_4 0
y_2_12_5 0
y_2_13_1 0
y_2_13_2 0
y_2_13_3 0
y_2_13_4 0
y_2_13_5 0
y_3_1_1 0
y_3_1_2 0
y_3_1_3 0
y_3_1_4 0
y_3_1_5 0
y_3_2_1 0
y_3_2_2 0
y_3_2_3 0
y_3_2_4 0
y_3_2_5 0
y_3_4_1 0
y_3_4_2 0
y_3_4_3 0
y_3_4_4 0
y_3_4_5 0
y_3_5_1 0
y_3_5_2 0
y_3_5_3 0
y_3_5_4 0
y_3_5_5 0
y_3_6_1 0
y_3_6_2 0
y_3_6_3 0
y_3_6_4 0
y_3_6_5 0
y_3_7_1 1
y_3_7_2 1
y_3_7_3 1
y_3_7_4 1
y_3_7_5 1
y_3_8_1 0
y_3_8_2 0
y_3_8_3 0
y_3_8_4 0
y_3_8_5 0
y_3_9_1 0
y_3_9_2 0
y_3_9_3 0
y_3_9_4 0
y_3_9_5 0
y_3_10_1 0
y_3_10_2 0
y_3_10_3 0
y_3_10_4 0
y_3_10_5 0
y_3_11_1 0
y_3_11_2 0
y_3_11_3 0
y_3_11_4 0
y_3_11_5 0
y_3_12_1 0
y_3_12_2 0
y_3_12_3 0
y_3_12_4 0
y_3_12_5 0
y_3_13_1 0
y_3_13_2 0
y_3_13_3 0
y_3_13_4 0
y_3_13_5 0
y_4_1_1 0
y_4_1_2 0
y_4_1_3 0
y_4_1_4 0
y_4_1_5 0
y_4_2_1 0
y_4_2_2 0
y_4_2_3 0
y_4_2_4 0
y_4_2_5 0
y_4_3_1 0
y_4_3_2 0
y_4_3_3 0
y_4_3_4 0
y_4_3_5 0
y_4_5_1 0
y_4_5_2 0
y_4_5_3 0
y_4_5_4 0
y_4_5_5 0
y_4_6_1 0
y_4_6_2 0
y_4_6_3 0
y_4_6_4 0
y_4_6_5 0
y_4_7_1 0
y_4_7_2 0
y_4_7_3 0
y_4_7_4 0
y_4_7_5 0
y_4_8_1 0
y_4_8_2 0
y_4_8_3 0
y_4_8_4 0
y_4_8_5 0
y_4_9_1 0
y_4_9_2 0
y_4_9_3 0
y_4_9_4 0
y_4_9_5 0
y_4_10_1 0
y_4_10_2 0
y_4_10_3 0
y_4_10_4 0
y_4_10_5 0
y_4_11_1 0
y_4_11_2 0
y_4_11_3 0
y_4_11_4 0
y_4_11_5 0
y_4_12_1 0
y_4_12_2 0
y_4_12_3 0
y_4_12_4 0
y_4_12_5 0
y_4_13_1 0
y_4_13_2 0
y_4_13_3 0
y_4_13_4 0
y_4_13_5 0
y_5_1_1 0
y_5_1_2 0
y_5_1_3 0
y_5_1_4 0
y_5_1_5 0
y_5_2_1 0
y_5_2_2 0
y_5_2_3 0
y_5_2_4 0
y_5_2_5 0
y_5_3_1 0
y_5_3_2 0
y_5_3_3 0
y_5_3_4 0
y_5_3_5 0
y_5_4_1 0
y_5_4_2 0
y_5_4_3 0
y_5_4_4 0
y_5_4_5 0
y_5_6_1 0
y_5_6_2 0
y_5_6_3 0
y_5_6_4 0
y_5_6_5 0
y_5_7_1 0
y_5_7_2 0
y_5_7_3 0
y_5_7_4 0
y_5_7_5 0
y_5_8_1 0
y_5_8_2 0
y_5_8_3 0
y_5_8_4 0
y_5_8_5 0
y_5_9_1 0
y_5_9_2 0
y_5_9_3 0
y_5_9_4 0
y_5_9_5 0
y_5_10_1 0
y_5_10_2 0
y_5_10_3 0
y_5_10_4 0
y_5_10_5 0
y_5_11_1 0
y_5_11_2 0
y_5_11_3 0
y_5_11_4 0
y_5_11_5 0
y_5_12_1 1
y_5_12_2 1
y_5_12_3 1
y_5_12_4 1
y_5_12_5 1
y_5_13_1 0
y_5_13_2 0
y_5_13_3 0
y_5_13_4 0
y_5_13_5 0
y_6_1_1 0
y_6_1_2 0
y_6_1_3 0
y_6_1_4 0
y_6_1_5 0
y_6_2_1 0
y_6_2_2 0
y_6_2_3 0
y_6_2_4 0
y_6_2_5 0
y_6_3_1 0
y_6_3_2 0
y_6_3_3 0
y_6_3_4 0
y_6_3_5 0
y_6_4_1 0
y_6_4_2 0
y_6_4_3 0
y_6_4_4 0
y_6_4_5 0
y_6_5_1 0
y_6_5_2 0
y_6_5_3 0
y_6_5_4 0
y_6_5_5 0
y_6_7_1 0
y_6_7_2 0
y_6_7_3 0
y_6_7_4 0
y_6_7_5 0
y_6_8_1 0
y_6_8_2 0
y_6_8_3 0
y_6_8_4 0
y_6_8_5 0
y_6_9_1 0
y_6_9_2 0
y_6_9_3 0
y_6_9_4 0
y_6_9_5 0
y_6_10_1 0
y_6_10_2 0
y_6_10_3 0
y_6_10_4 0
y_6_10_5 0
y_6_11_1 1
y_6_11_2 1
y_6_11_3 1
y_6_11_4 1
y_6_11_5 1
y_6_12_1 0
y_6_12_2 0
y_6_12_3 0
y_6_12_4 0
y_6_12_5 0
y_6_13_1 0
y_6_13_2 0
y_6_13_3 0
y_6_13_4 0
y_6_13_5 0
y_7_1_1 0
y_7_1_2 0
y_7_1_3 0
y_7_1_4 0
y_7_1_5 0
y_7_2_1 0
y_7_2_2 0
y_7_2_3 0
y_7_2_4 0
y_7_2_5 0
y_7_3_1 0
y_7_3_2 0
y_7_3_3 0
y_7_3_4 0
y_7_3_5 0
y_7_4_1 0
y_7_4_2 0
y_7_4_3 0
y_7_4_4 0
y_7_4_5 0
y_7_5_1 0
y_7_5_2 0
y_7_5_3 0
y_7_5_4 0
y_7_5_5 0
y_7_6_1 0
y_7_6_2 0
y_7_6_3 0
y_7_6_4 0
y_7_6_5 0
y_7_8_1 0
y_7_8_2 0
y_7_8_3 0
y_7_8_4 0
y_7_8_5 0
y_7_9_1 0
y_7_9_2 0
y_7_9_3 0
y_7_9_4 0
y_7_9_5 0
y_7_10_1 1
y_7_10_2 1
y_7_10_3 1
y_7_10_4 1
y_7_10_5 1
y_7_11_1 0
y_7_11_2 0
y_7_11_3 0
y_7_11_4 0
y_7_11_5 0
y_7_12_1 0
y_7_12_2 0
y_7_12_3 0
y_7_12_4 0
y_7_12_5 0
y_7_13_1 0
y_7_13_2 0
y_7_13_3 0
y_7_13_4 0
y_7_13_5 0
y_8_1_1 0
y_8_1_2 0
y_8_1_3 0
y_8_1_4 0
y_8_1_5 0
y_8_2_1 1
y_8_2_2 1
y_8_2_3 1
y_8_2_4 1
y_8_2_5 1
y_8_3_1 0
y_8_3_2 0
y_8_3_3 0
y_8_3_4 0
y_8_3_5 0
y_8_4_1 0
y_8_4_2 0
y_8_4_3 0
y_8_4_4 0
y_8_4_5 0
y_8_5_1 0
y_8_5_2 0
y_8_5_3 0
y_8_5_4 0
y_8_5_5 0
y_8_6_1 0
y_8_6_2 0
y_8_6_3 0
y_8_6_4 0
y_8_6_5 0
y_8_7_1 0
y_8_7_2 0
y_8_7_3 0
y_8_7_4 0
y_8_7_5 0
y_8_9_1 0
y_8_9_2 0
y_8_9_3 0
y_8_9_4 0
y_8_9_5 0
y_8_10_1 0
y_8_10_2 0
y_8_10_3 0
y_8_10_4 0
y_8_10_5 0
y_8_11_1 0
y_8_11_2 0
y_8_11_3 0
y_8_11_4 0
y_8_11_5 0
y_8_12_1 0
y_8_12_2 0
y_8_12_3 0
y_8_12_4 0
y_8_12_5 0
y_8_13_1 0
y_8_13_2 0
y_8_13_3 0
y_8_13_4 0
y_8_13_5 0
y_9_1_1 0
y_9_1_2 0
y_9_1_3 0
y_9_1_4 0
y_9_1_5 0
y_9_2_1 0
y_9_2_2 0
y_9_2_3 0
y_9_2_4 0
y_9_2_5 0
y_9_3_1 0
y_9_3_2 0
y_9_3_3 0
y_9_3_4 0
y_9_3_5 0
y_9_4_1 0
y_9_4_2 0
y_9_4_3 0
y_9_4_4 0
y_9_4_5 0
y_9_5_1 0
y_9_5_2 0
y_9_5_3 0
y_9_5_4 0
y_9_5_5 0
y_9_6_1 0
y_9_6_2 0
y_9_6_3 0
y_9_6_4 0
y_9_6_5 0
y_9_7_1 0
y_9_7_2 0
y_9_7_3 0
y_9_7_4 0
y_9_7_5 0
y_9_8_1 1
y_9_8_2 1
y_9_8_3 1
y_9_8_4 1
y_9_8_5 1
y_9_10_1 0
y_9_10_2 0
y_9_10_3 0
y_9_10_4 0
y_9_10_5 0
y_9_11_1 0
y_9_11_2 0
y_9_11_3 0
y_9_11_4 0
y_9_11_5 0
y_9_12_1 0
y_9_12_2 0
y_9_12_3 0
y_9_12_4 0
y_9_12_5 0
y_9_13_1 0
y_9_13_2 0
y_9_13_3 0
y_9_13_4 0
y_9_13_5 0
y_10_1_1 1
y_10_1_2 1
y_10_1_3 1
y_10_1_4 1
y_10_1_5 1
y_10_2_1 0
y_10_2_2 0
y_10_2_3 0
y_10_2_4 0
y_10_2_5 0
y_10_3_1 0
y_10_3_2 0
y_10_3_3 0
y_10_3_4 0
y_10_3_5 0
y_10_4_1 0
y_10_4_2 0
y_10_4_3 0
y_10_4_4 0
y_10_4_5 0
y_10_5_1 0
y_10_5_2 0
y_10_5_3 0
y_10_5_4 0
y_10_5_5 0
y_10_6_1 0
y_10_6_2 0
y_10_6_3 0
y_10_6_4 0
y_10_6_5 0
y_10_7_1 0
y_10_7_2 0
y_10_7_3 0
y_10_7_4 0
y_10_7_5 0
y_10_8_1 0
y_10_8_2 0
y_10_8_3 0
y_10_8_4 0
y_10_8_5 0
y_10_9_1 0
y_10_9_2 0
y_10_9_3 0
y_10_9_4 0
y_10_9_5 0
y_10_11_1 0
y_10_11_2 0
y_10_11_3 0
y_10_11_4 0
y_10_11_5 0
y_10_12_1 0
y_10_12_2 0
y_10_12_3 0
y_10_12_4 0
y_10_12_5 0
y_10_13_1 0
y_10_13_2 0
y_10_13_3 0
y_10_13_4 0
y_10_13_5 0
Q_0_1 0
Q_0_2 0
Q_0_3 0
Q_0_4 0
Q_0_5 0
Q_1_1 3.7062999999999931e+02
Q_1_2 3.7416999999999928e+02
Q_1_3 3.3743999999999926e+02
Q_1_4 3.6276999999999930e+02
Q_1_5 3.6681999999999925e+02
Q_2_1 728.15
Q_2_2 717.45
Q_2_3 6.6324000000000069e+02
Q_2_4 694.75
Q_2_5 6.7473000000000059e+02
Q_3_1 9.6429999999999339e+01
Q_3_2 1.0258999999999935e+02
Q_3_3 9.6479999999999350e+01
Q_3_4 9.8169999999999348e+01
Q_3_5 1.0203999999999934e+02
Q_4_1 1.0683000000000014e+02
Q_4_2 114.55
Q_4_3 1.0492000000000014e+02
Q_4_4 1.1426000000000015e+02
Q_4_5 102.85
Q_5_1 8.6017999999999984e+02
Q_5_2 837.2
Q_5_3 7.8042999999999984e+02
Q_5_4 8.2216999999999973e+02
Q_5_5 7.8422999999999979e+02
Q_6_1 84.25
Q_6_2 9.7279999999999276e+01
Q_6_3 9.3959999999999269e+01
Q_6_4 9.2339999999999264e+01
Q_6_5 8.9289999999999267e+01
Q_7_1 2.0936999999999955e+02
Q_7_2 2.0302999999999957e+02
Q_7_3 1.9122999999999956e+02
Q_7_4 2.0068999999999957e+02
Q_7_5 210.4
Q_8_1 5.9232000000000039e+02
Q_8_2 583.7
Q_8_3 544.7
Q_8_4 5.7056000000000040e+02
Q_8_5 5.5143000000000040e+02
Q_9_1 502.5
Q_9_2 4.8196999999999969e+02
Q_9_3 4.4906999999999971e+02
Q_9_4 463.2
Q_9_5 4.5955999999999972e+02
Q_10_1 2.8730999999999869e+02
Q_10_2 2.8270999999999867e+02
Q_10_3 2.7412999999999869e+02
Q_10_4 2.8602999999999867e+02
Q_10_5 2.7982999999999868e+02
Q_11_1 84.25
Q_11_2 9.7279999999999276e+01
Q_11_3 9.3959999999999269e+01
Q_11_4 9.2339999999999264e+01
Q_11_5 8.9289999999999267e+01
Q_12_1 8.6017999999999984e+02
Q_12_2 837.2
Q_12_3 7.8042999999999984e+02
Q_12_4 8.2216999999999973e+02
Q_12_5 7.8422999999999979e+02
Q_13_1 1.0683000000000014e+02
Q_13_2 114.55
Q_13_3 1.0492000000000014e+02
Q_13_4 1.1426000000000015e+02
Q_13_5 102.85
R_11_1 24.25
R_11_2 3.7279999999999276e+01
R_11_3 3.3959999999999269e+01
R_11_4 3.2339999999999264e+01
R_11_5 2.9289999999999267e+01
R_12_1 8.0017999999999984e+02
R_12_2 777.2
R_12_3 7.2042999999999984e+02
R_12_4 7.6216999999999973e+02
R_12_5 7.2422999999999979e+02
R_13_1 4.6830000000000140e+01
R_13_2 54.55
R_13_3 4.4920000000000144e+01
R_13_4 5.4260000000000147e+01
R_13_5 4.2849999999999994e+01
L_1_1 9.12
L_1_2 7.91
L_1_3 10.22
L_1_4 11.01
L_1_5 7.72
L_2_1 0
L_2_2 0
L_2_3 0
L_2_4 0
L_2_5 0
L_3_1 7.2200000000000006e+00
L_3_2 1.7439999999999998e+01
L_3_3 30.3
L_3_4 1.3530000000000001e+01
L_3_5 13.93
L_4_1 21.66
L_4_2 1.4559999999999999e+01
L_4_3 29.16
L_4_4 1.9810000000000002e+01
L_4_5 19.55
L_5_1 0
L_5_2 0
L_5_3 0
L_5_4 0
L_5_5 0
L_6_1 37.42
L_6_2 28.96
L_6_3 12.01
L_6_4 24.95
L_6_5 16.37
L_7_1 2.7349999999999998e+01
L_7_2 36.25
L_7_3 6.1899999999999995e+00
L_7_4 1.3959999999999999e+01
L_7_5 16.17
L_8_1 8.86
L_8_2 1.38
L_8_3 0.51
L_8_4 6.48
L_8_5 13.43
L_9_1 10.99
L_9_2 9.04
L_9_3 0.27
L_9_4 4.96
L_9_5 10.26
L_10_1 7.23
L_10_2 9.02
L_10_3 11.4
L_10_4 9.11
L_10_5 17.74
rho_1_1 1
rho_1_2 1
rho_1_3 1
rho_1_4 1
rho_1_5 1
rho_2_1 1
rho_2_2 1
rho_2_3 1
rho_2_4 1
rho_2_5 1
rho_3_1 1
rho_3_2 1
rho_3_3 1
rho_3_4 1
rho_3_5 1
rho_4_1 1
rho_4_2 1
rho_4_3 1
rho_4_4 1
rho_4_5 1
rho_5_1 1
rho_5_2 1
rho_5_3 1
rho_5_4 1
rho_5_5 1
rho_6_1 1
rho_6_2 1
rho_6_3 1
rho_6_4 1
rho_6_5 1
rho_7_1 1
rho_7_2 1
rho_7_3 1
rho_7_4 1
rho_7_5 1
rho_8_1 1
rho_8_2 1
rho_8_3 1
rho_8_4 1
rho_8_5 1
rho_9_1 1
rho_9_2 1
rho_9_3 1
rho_9_4 1
rho_9_5 1
rho_10_1 1
rho_10_2 1
rho_10_3 1
rho_10_4 1
rho_10_5 1
lambd_1_1 0
lambd_1_2 0
lambd_1_3 0
lambd_1_4 0
lambd_1_5 0
lambd_2_1 0
lambd_2_2 0
lambd_2_3 0
lambd_2_4 0
lambd_2_5 0
lambd_3_1 0
lambd_3_2 0
lambd_3_3 0
lambd_3_4 0
lambd_3_5 0
lambd_4_1 0
lambd_4_2 0
lambd_4_3 0
lambd_4_4 0
lambd_4_5 0
lambd_5_1 0
lambd_5_2 0
lambd_5_3 0
lambd_5_4 0
lambd_5_5 0
lambd_6_1 0
lambd_6_2 0
lambd_6_3 0
lambd_6_4 0
lambd_6_5 0
lambd_7_1 0
lambd_7_2 0
lambd_7_3 0
lambd_7_4 0
lambd_7_5 0
lambd_8_1 0
lambd_8_2 0
lambd_8_3 0
lambd_8_4 0
lambd_8_5 0
lambd_9_1 0
lambd_9_2 0
lambd_9_3 0
lambd_9_4 0
lambd_9_5 0
lambd_10_1 0
lambd_10_2 0
lambd_10_3 0
lambd_10_4 0
lambd_10_5 0
alpha_1_1 0
alpha_1_2 0
alpha_1_3 0
alpha_1_4 0
alpha_1_5 0
alpha_2_1 0
alpha_2_2 0
alpha_2_3 0
alpha_2_4 0
alpha_2_5 0
alpha_3_1 1
alpha_3_2 1
alpha_3_3 1
alpha_3_4 1
alpha_3_5 1
alpha_4_1 0
alpha_4_2 0
alpha_4_3 0
alpha_4_4 0
alpha_4_5 0
alpha_5_1 0
alpha_5_2 0
alpha_5_3 0
alpha_5_4 0
alpha_5_5 0
alpha_6_1 1
alpha_6_2 1
alpha_6_3 1
alpha_6_4 1
alpha_6_5 1
alpha_7_1 0
alpha_7_2 0
alpha_7_3 0
alpha_7_4 0
alpha_7_5 0
alpha_8_1 0
alpha_8_2 0
alpha_8_3 0
alpha_8_4 0
alpha_8_5 0
alpha_9_1 0
alpha_9_2 0
alpha_9_3 0
alpha_9_4 0
alpha_9_5 0
alpha_10_1 0
alpha_10_2 0
alpha_10_3 0
alpha_10_4 0
alpha_10_5 0
